10	36
0	2	34
0	3	88
0	5	18
0	6	54
0	7	51
0	8	27
0	9	74
1	2	21
1	3	21
1	5	47
1	6	69
1	7	58
1	8	48
1	9	0
2	3	62
2	5	81
2	6	18
2	7	69
2	8	58
2	9	10
3	4	24
3	6	63
3	7	25
3	8	59
4	5	56
4	6	68
4	7	63
4	8	46
4	9	68
5	6	35
5	7	32
5	8	22
5	9	89
6	9	44
7	8	90
8	9	56
